clingo version 5.4.0
Reading from stdin
Solving...
*** Info : (clingo): INTERRUPTED by signal!
UNKNOWN

TIME LIMIT   : 1
Models       : 0+
Calls        : 1
Time         : 7199.997s (Solving: 7192.97s 1st Model: 0.00s Unsat: 0.00s)
CPU Time     : 5677.332s
